# 13602
param n := 30;
param s := 1;
set E :=  (0,16) (0,28) (1,5) (1,18) (2,24) (2,27) (3,11) (4,14) (5,22) (6,8) (6,11) (6,25) (6,28) (7,20) (7,23) (9,19) (9,24) (10,17) (11,21) (11,23) (11,29) (12,14) (12,15) (12,27) (13,15) (14,24) (16,17) (16,28) (17,18) (21,26) (23,26) (24,25);
